
List of user-set options:

                                    Name   Value                used
                         derivative_test = first-order           yes
                        file_print_level = 5                     yes
                   hessian_approximation = limited-memory        yes
                                  hsllib = /home/ggs24/packages/ThirdParty-HSL/.libs/libcoinhsl.so  yes
                           linear_solver = ma97                  yes
                                max_iter = 1000                  yes
                             output_file = IPOPT.out             yes
                             print_level = 0                     yes
                      print_user_options = yes                   yes
                                      sb = yes                   yes
This is Ipopt version 3.14.7, running with linear solver ma97.

Starting derivative checker for first derivatives.


No errors detected by derivative checker.

Number of nonzeros in equality constraint Jacobian...:        0
Number of nonzeros in inequality constraint Jacobian.:        3
Number of nonzeros in Lagrangian Hessian.............:        0

Total number of variables............................:        3
                     variables with only lower bounds:        0
                variables with lower and upper bounds:        3
                     variables with only upper bounds:        0
Total number of equality constraints.................:        0
Total number of inequality constraints...............:        1
        inequality constraints with only lower bounds:        0
   inequality constraints with lower and upper bounds:        0
        inequality constraints with only upper bounds:        0

iter    objective    inf_pr   inf_du lg(mu)  ||d||  lg(rg) alpha_du alpha_pr  ls
   0  1.0103879e-01 0.00e+00 1.01e-01   0.0 0.00e+00    -  0.00e+00 0.00e+00   0
   1  9.3349604e-02 0.00e+00 4.85e-02  -1.2 4.86e-02    -  9.96e-01 1.00e+00f  1
   2  7.5979573e-02 0.00e+00 3.11e-02  -1.6 2.41e+00    -  9.80e-01 4.72e-02f  5
   3  7.3790542e-02 0.00e+00 4.10e-02  -2.8 2.12e+00    -  9.82e-01 6.90e-03f  8
Warning: Cutting back alpha due to evaluation error
   4  7.2662611e-02 0.00e+00 4.67e-02  -2.9 2.16e+00    -  1.00e+00 3.70e-03f  9
   5  7.2257102e-02 0.00e+00 9.35e-02  -3.5 9.35e-02    -  1.00e+00 3.12e-02f  6
   6  7.2030751e-02 0.00e+00 5.77e-02  -2.4 2.05e+01    -  1.00e+00 8.03e-05f 11
   7  7.1960742e-02 0.00e+00 5.61e-02  -2.6 3.25e+00    -  1.00e+00 1.55e-04f 13
   8  7.1950905e-02 0.00e+00 5.66e-02  -3.0 2.73e+00    -  1.00e+00 2.98e-05f 16
   9  7.1950708e-02 0.00e+00 5.48e+04  -3.5 9.27e-02    -  1.00e+00 1.53e-05f 17
iter    objective    inf_pr   inf_du lg(mu)  ||d||  lg(rg) alpha_du alpha_pr  ls
  10  7.1950708e-02 0.00e+00 5.48e+04  -2.7 1.40e-06    -  1.00e+00 4.66e-10f 32
  11  7.1950708e-02 0.00e+00 5.48e+04  -2.7 1.40e-06    -  1.00e+00 4.66e-10f 32
  12  7.1950708e-02 0.00e+00 5.48e+04  -2.7 1.40e-06    -  1.00e+00 2.33e-10f 33
  13  0.0000000e+00 0.00e+00 1.38e-03  -2.7 5.48e+04    -  3.11e-05 5.23e-06f  4
  14  0.0000000e+00 0.00e+00 3.84e-06  -8.8 6.56e-16    -  9.97e-01 1.00e+00   0
  15  0.0000000e+00 0.00e+00 2.79e-07  -5.4 1.46e-12    -  1.00e+00 1.00e+00f  1
  16  0.0000000e+00 0.00e+00 5.33e-10  -8.2 2.79e-15    -  1.00e+00 1.00e+00f  1

Number of Iterations....: 16

                                   (scaled)                 (unscaled)
Objective...............:   0.0000000000000000e+00    0.0000000000000000e+00
Dual infeasibility......:   5.3296763135621189e-10    5.3296763135621189e-10
Constraint violation....:   0.0000000000000000e+00    0.0000000000000000e+00
Variable bound violation:   0.0000000000000000e+00    0.0000000000000000e+00
Complementarity.........:   6.9676209725647615e-09    6.9676209725647615e-09
Overall NLP error.......:   6.9676209725647615e-09    6.9676209725647615e-09


Number of objective function evaluations             = 238
Number of objective gradient evaluations             = 17
Number of equality constraint evaluations            = 0
Number of inequality constraint evaluations          = 239
Number of equality constraint Jacobian evaluations   = 0
Number of inequality constraint Jacobian evaluations = 17
Number of Lagrangian Hessian evaluations             = 0
Total seconds in IPOPT                               = 0.509

EXIT: Optimal Solution Found.
